p tw 253 486
1 169
1 170
1 206
1 207
1 229
1 230
2 97
2 98
2 122
2 123
2 233
3 71
3 115
3 116
4 33
4 196
4 197
4 220
4 221
5 81
5 232
5 233
6 109
6 110
6 244
6 245
7 120
7 121
7 232
8 80
8 81
8 152
8 153
9 124
9 180
9 181
10 76
10 240
10 241
11 149
11 150
11 164
11 165
12 82
12 83
12 84
12 101
12 102
12 128
12 129
12 145
12 193
12 194
12 250
12 251
13 104
13 105
13 184
13 223
14 35
14 73
14 74
14 79
14 80
14 90
14 139
14 140
14 153
14 154
14 166
14 167
14 194
14 195
14 203
14 204
14 225
14 226
14 249
14 250
15 87
15 88
15 91
15 155
15 156
16 93
16 94
16 117
16 118
16 238
17 177
17 178
17 241
17 242
18 137
18 138
18 151
18 152
18 165
18 166
19 187
19 188
19 243
19 244
20 63
20 112
20 143
20 144
21 154
21 210
21 252
21 253
22 105
22 106
22 134
22 234
22 235
23 137
23 148
23 149
23 186
23 187
24 145
24 146
24 189
25 173
25 174
25 211
25 212
26 77
26 246
26 247
27 132
27 218
27 219
28 37
28 54
28 144
28 171
28 172
28 208
28 230
28 231
29 191
29 192
29 248
29 249
30 75
30 76
30 141
30 142
31 71
31 72
31 78
31 79
31 138
31 139
31 209
32 184
32 185
32 201
33 77
33 78
33 147
33 148
34 108
34 109
34 243
35 74
35 75
35 90
35 119
35 120
36 57
36 92
36 93
36 113
36 114
37 54
37 172
37 208
37 231
38 157
38 158
38 211
39 125
39 159
39 160
39 215
39 216
40 132
40 133
40 161
40 162
40 204
40 205
40 219
41 160
41 200
41 217
42 86
42 87
42 104
42 234
43 168
43 169
43 205
43 206
43 227
43 228
44 102
44 103
44 130
44 131
45 106
45 107
45 134
45 135
45 163
45 164
45 201
45 202
45 223
45 224
45 235
46 124
46 125
46 181
46 216
46 217
47 178
47 179
47 198
47 199
47 213
47 214
48 107
48 108
48 136
49 72
49 73
49 89
49 90
49 118
49 119
49 175
49 176
49 209
49 210
50 61
50 82
50 83
51 98
51 99
51 242
52 68
52 100
52 101
52 126
52 127
53 189
53 190
53 202
53 203
53 218
54 56
54 144
54 188
54 231
54 245
55 110
55 111
55 236
56 188
56 207
56 208
56 228
56 229
57 91
57 92
58 182
58 196
58 220
59 96
59 97
59 121
59 122
60 183
60 199
60 200
60 222
61 84
61 85
61 190
62 70
62 150
62 151
63 112
63 237
64 182
64 183
64 197
64 198
64 221
64 222
65 135
65 136
65 147
65 163
66 111
66 112
66 140
66 141
66 167
66 168
66 226
66 227
66 236
66 237
67 94
67 95
67 238
67 239
68 100
68 126
69 158
69 159
69 212
69 213
70 161
70 251
70 252
71 72
72 73
73 74
74 75
75 76
77 78
78 79
79 80
80 81
82 83
83 84
84 85
85 86
86 87
87 88
88 89
89 90
91 92
92 93
93 94
94 95
95 96
96 97
97 98
98 99
99 123
100 101
101 102
102 103
103 131
104 105
105 106
106 107
107 108
108 109
109 110
110 111
111 112
113 114
113 173
114 115
115 116
116 117
117 118
118 119
119 120
120 121
121 122
122 123
124 125
126 127
127 128
128 129
129 130
130 131
132 133
133 162
134 135
135 136
137 138
138 139
139 140
140 141
141 142
142 143
143 144
145 146
146 155
147 148
148 149
149 150
150 151
151 152
152 153
153 154
155 156
156 157
157 158
158 159
159 160
161 162
163 164
164 165
165 166
166 167
167 168
168 169
169 170
170 171
171 172
173 174
174 175
175 176
176 177
177 178
178 179
179 180
180 181
182 183
184 185
185 186
186 187
187 188
189 190
191 192
191 246
192 193
193 194
194 195
195 253
196 197
197 198
198 199
199 200
201 202
202 203
203 204
204 205
205 206
206 207
207 208
209 210
211 212
212 213
213 214
214 215
215 216
216 217
218 219
220 221
221 222
223 224
224 225
225 226
226 227
227 228
228 229
229 230
230 231
232 233
234 235
236 237
238 239
239 240
240 241
241 242
243 244
244 245
246 247
247 248
248 249
249 250
250 251
251 252
252 253
